(set-logic HORN)
(declare-datatypes ((Nat_1 0)) (((Z_1 ) (S_1 (unS_0 Nat_1)))))
(declare-fun diseqNat_0 (Nat_1 Nat_1) Bool)
(declare-fun unS_1 (Nat_1 Nat_1) Bool)
(declare-fun isZ_0 (Nat_1) Bool)
(declare-fun isS_0 (Nat_1) Bool)
(assert (forall ((x_15 Nat_1) (x_14 Nat_1))
	(=> (= x_15 (S_1 x_14))
	    (unS_1 x_14 x_15))))
(assert (isZ_0 Z_1))
(assert (forall ((x_16 Nat_1))
	(isS_0 (S_1 x_16))))
(assert (forall ((x_17 Nat_1))
	(diseqNat_0 Z_1 (S_1 x_17))))
(assert (forall ((x_18 Nat_1))
	(diseqNat_0 (S_1 x_18) Z_1)))
(assert (forall ((x_19 Nat_1) (x_20 Nat_1))
	(=> (diseqNat_0 x_19 x_20)
	    (diseqNat_0 (S_1 x_19) (S_1 x_20)))))
(declare-fun add_0 (Nat_1 Nat_1 Nat_1) Bool)
(declare-fun minus_0 (Nat_1 Nat_1 Nat_1) Bool)
(declare-fun le_0 (Nat_1 Nat_1) Bool)
(declare-fun ge_0 (Nat_1 Nat_1) Bool)
(declare-fun lt_0 (Nat_1 Nat_1) Bool)
(declare-fun gt_0 (Nat_1 Nat_1) Bool)
(declare-fun mult_0 (Nat_1 Nat_1 Nat_1) Bool)
(declare-fun div_0 (Nat_1 Nat_1 Nat_1) Bool)
(declare-fun mod_0 (Nat_1 Nat_1 Nat_1) Bool)
(assert (forall ((y_2 Nat_1))
	(add_0 y_2 Z_1 y_2)))
(assert (forall ((x_12 Nat_1) (y_2 Nat_1) (r_0 Nat_1))
	(=> (add_0 r_0 x_12 y_2)
	    (add_0 (S_1 r_0) (S_1 x_12) y_2))))
(assert (forall ((y_2 Nat_1))
	(minus_0 Z_1 Z_1 y_2)))
(assert (forall ((x_12 Nat_1) (y_2 Nat_1) (r_0 Nat_1))
	(=> (minus_0 r_0 x_12 y_2)
	    (minus_0 (S_1 r_0) (S_1 x_12) y_2))))
(assert (forall ((y_2 Nat_1))
	(le_0 Z_1 y_2)))
(assert (forall ((x_12 Nat_1) (y_2 Nat_1))
	(=> (le_0 x_12 y_2)
	    (le_0 (S_1 x_12) (S_1 y_2)))))
(assert (forall ((y_2 Nat_1))
	(ge_0 y_2 Z_1)))
(assert (forall ((x_12 Nat_1) (y_2 Nat_1))
	(=> (ge_0 x_12 y_2)
	    (ge_0 (S_1 x_12) (S_1 y_2)))))
(assert (forall ((y_2 Nat_1))
	(lt_0 Z_1 (S_1 y_2))))
(assert (forall ((x_12 Nat_1) (y_2 Nat_1))
	(=> (lt_0 x_12 y_2)
	    (lt_0 (S_1 x_12) (S_1 y_2)))))
(assert (forall ((y_2 Nat_1))
	(gt_0 (S_1 y_2) Z_1)))
(assert (forall ((x_12 Nat_1) (y_2 Nat_1))
	(=> (gt_0 x_12 y_2)
	    (gt_0 (S_1 x_12) (S_1 y_2)))))
(assert (forall ((y_2 Nat_1))
	(mult_0 Z_1 Z_1 y_2)))
(assert (forall ((x_12 Nat_1) (y_2 Nat_1) (r_0 Nat_1) (z_2 Nat_1))
	(=>	(and (mult_0 r_0 x_12 y_2)
			(add_0 z_2 r_0 y_2))
		(mult_0 z_2 (S_1 x_12) y_2))))
(assert (forall ((x_12 Nat_1) (y_2 Nat_1))
	(=> (lt_0 x_12 y_2)
	    (div_0 Z_1 x_12 y_2))))
(assert (forall ((x_12 Nat_1) (y_2 Nat_1) (r_0 Nat_1) (z_2 Nat_1))
	(=>	(and (ge_0 x_12 y_2)
			(minus_0 z_2 x_12 y_2)
			(div_0 r_0 z_2 y_2))
		(div_0 (S_1 r_0) x_12 y_2))))
(assert (forall ((x_12 Nat_1) (y_2 Nat_1))
	(=> (lt_0 x_12 y_2)
	    (mod_0 x_12 x_12 y_2))))
(assert (forall ((x_12 Nat_1) (y_2 Nat_1) (r_0 Nat_1) (z_2 Nat_1))
	(=>	(and (ge_0 x_12 y_2)
			(minus_0 z_2 x_12 y_2)
			(mod_0 r_0 z_2 y_2))
		(mod_0 r_0 x_12 y_2))))
(declare-datatypes ((list_0 0)) (((nil_0 ) (cons_0 (head_0 Nat_1) (tail_0 list_0)))))
(declare-fun diseqlist_0 (list_0 list_0) Bool)
(declare-fun head_1 (Nat_1 list_0) Bool)
(declare-fun tail_1 (list_0 list_0) Bool)
(declare-fun isnil_0 (list_0) Bool)
(declare-fun iscons_0 (list_0) Bool)
(assert (forall ((x_24 list_0) (x_22 Nat_1) (x_23 list_0))
	(=> (= x_24 (cons_0 x_22 x_23))
	    (head_1 x_22 x_24))))
(assert (forall ((x_24 list_0) (x_22 Nat_1) (x_23 list_0))
	(=> (= x_24 (cons_0 x_22 x_23))
	    (tail_1 x_23 x_24))))
(assert (isnil_0 nil_0))
(assert (forall ((x_25 Nat_1) (x_26 list_0))
	(iscons_0 (cons_0 x_25 x_26))))
(assert (forall ((x_27 Nat_1) (x_28 list_0))
	(diseqlist_0 nil_0 (cons_0 x_27 x_28))))
(assert (forall ((x_29 Nat_1) (x_30 list_0))
	(diseqlist_0 (cons_0 x_29 x_30) nil_0)))
(assert (forall ((x_31 Nat_1) (x_32 list_0) (x_33 Nat_1) (x_34 list_0))
	(=> (diseqNat_0 x_31 x_33)
	    (diseqlist_0 (cons_0 x_31 x_32) (cons_0 x_33 x_34)))))
(assert (forall ((x_31 Nat_1) (x_32 list_0) (x_33 Nat_1) (x_34 list_0))
	(=> (diseqlist_0 x_32 x_34)
	    (diseqlist_0 (cons_0 x_31 x_32) (cons_0 x_33 x_34)))))
(declare-datatypes ((Nat_0 0)) (((Z_0 ) (S_0 (projS_0 Nat_0)))))
(declare-fun diseqNat_1 (Nat_0 Nat_0) Bool)
(declare-fun projS_1 (Nat_0 Nat_0) Bool)
(declare-fun isZ_1 (Nat_0) Bool)
(declare-fun isS_1 (Nat_0) Bool)
(assert (forall ((x_37 Nat_0) (x_36 Nat_0))
	(=> (= x_37 (S_0 x_36))
	    (projS_1 x_36 x_37))))
(assert (isZ_1 Z_0))
(assert (forall ((x_38 Nat_0))
	(isS_1 (S_0 x_38))))
(assert (forall ((x_39 Nat_0))
	(diseqNat_1 Z_0 (S_0 x_39))))
(assert (forall ((x_40 Nat_0))
	(diseqNat_1 (S_0 x_40) Z_0)))
(assert (forall ((x_41 Nat_0) (x_42 Nat_0))
	(=> (diseqNat_1 x_41 x_42)
	    (diseqNat_1 (S_0 x_41) (S_0 x_42)))))
(declare-fun drop_0 (list_0 Nat_0 list_0) Bool)
(assert (forall ((x_0 Nat_0) (y_0 list_0) (z_0 Nat_0) (x_1 Nat_1) (x_2 list_0) (x_4 list_0) (x_5 list_0))
	(=>	(and (= x_4 x_5)
			(drop_0 x_5 z_0 x_2)
			(= x_0 (S_0 z_0))
			(= y_0 (cons_0 x_1 x_2)))
		(drop_0 x_4 x_0 y_0))))
(assert (forall ((x_0 Nat_0) (y_0 list_0) (z_0 Nat_0) (x_6 list_0))
	(=>	(and (= x_6 nil_0)
			(= x_0 (S_0 z_0))
			(= y_0 nil_0))
		(drop_0 x_6 x_0 y_0))))
(assert (forall ((x_0 Nat_0) (y_0 list_0) (x_7 list_0))
	(=>	(and (= x_7 y_0)
			(= x_0 Z_0))
		(drop_0 x_7 x_0 y_0))))
(assert (forall ((x_3 Nat_0) (y_1 Nat_0) (z_1 list_0) (x_8 list_0) (x_9 list_0) (x_10 list_0) (x_11 list_0))
	(=>	(and (diseqlist_0 x_9 x_11)
			(drop_0 x_8 y_1 z_1)
			(drop_0 x_9 x_3 x_8)
			(drop_0 x_10 x_3 z_1)
			(drop_0 x_11 y_1 x_10))
		false)))
(check-sat)
